(set-logic QF_S)
(declare-fun var0 () String)
(declare-fun var1 () String)
(declare-fun var2 () String)
(declare-fun var3 () Int)
(declare-fun var4 () Int)
(declare-fun var5 () Int)
(declare-fun var6 () Bool)
(declare-fun var7 () Bool)
(declare-fun var8 () Bool)
(assert (>= (str.indexof (str.at var1 var3) (str.replace var2 var2 "#j.[TI_\\eG") (str.len var2)) (str.indexof (str.replace var1 var0 var1) (str.at var1 var5) (str.len var2))))
(assert (str.suffixof (str.substr var0 var4 var5) (str.substr (str.replace var1 var0 var2) (str.len var1) (str.len var1))))
(assert (< (str.indexof var2 var1 var4) (str.len (str.substr var1 var5 var3))))
(assert (< (str.len (str.replace "#BP>$KWg4!" var0 var2)) (str.len var2)))
(check-sat)